
  32    4
  10   10   10   10

   0   0   0   0   0   3 2 30 31 
   6   2   1   1   0   1 3 
   7   1   7   5   0   1 4 
   2   0   3   4   1   1 5 
   9   5   7   4   0   2 29 6 
   2   0   2   3   4   2 28 7 
   9   6   3   3   0   1 8 
   2   0   4   7   5   2 27 9 
   5   0   4   5   5   1 10 
   9   5   0   4   2   1 11 
   5   4   3   4   0   1 12 
   5   0   6   4   2   1 13 
   7   0   3   5   5   1 14 
   4   4   0   3   2   1 15 
   2   1   0   4   5   2 26 16 
   8  10   0   6   5   1 17 
   7   8   0   6   4   1 18 
   8   4   5   0   4   1 19 
   6   0   3   4   3   1 20 
  10   7   0   4   3   1 21 
  10   1   2   1   0   1 22 
   2   4   0   5   8   1 23 
   7   6   0   5   4   1 24 
   8   3   0   6   2   1 25 
   1   0   3   1   5   1 32
   4   2   4   4   0   1 32
   2   2   7   4   0   1 32
   8   5   0   6   5   1 32
   5   3   4   2   0   1 32
   1   2   5   2   0   1 32
   4   3   4   0   6   1 32
   0   0   0   0   0   0 
